Tasks lengths
[34, 44, 46, 63, 66, 66, 74, 78, 80, 90, 91, 91, 93, 94, 95, 96, 97, 100, 102, 107, 110, 111, 115, 115, 119, 122, 130, 131, 141, 143, 143, 145, 145, 148, 154, 159, 159, 165, 195, 204]
9
Academic license - for non-commercial use only - expires 2022-11-10
Using license file /home/benedond/Apps/gurobi/gurobi950/gurobi.lic
Using gurobi.env file
Set parameter Threads to value 1
Changed value of parameter TimeLimit to 300.0
   Prev: inf  Min: 0.0  Max: inf  Default: inf
Gurobi Optimizer version 9.1.2 build v9.1.2rc0 (linux64)
Thread count: 2 physical cores, 4 logical processors, using up to 1 threads
Optimize a model with 407 rows, 369 columns and 1465 nonzeros
Model fingerprint: 0x9ae2948e
Model has 360 quadratic objective terms
Variable types: 9 continuous, 360 integer (360 binary)
Coefficient statistics:
  Matrix range     [1e+00, 2e+02]
  Objective range  [0e+00, 0e+00]
  QObjective range [1e-03, 7e-03]
  Bounds range     [1e+00, 1e+00]
  RHS range        [1e+00, 6e+02]
Presolve removed 162 rows and 143 columns
Presolve time: 0.02s
Presolved: 462 rows, 443 columns, 1520 nonzeros
Variable types: 0 continuous, 443 integer (217 binary)

Root relaxation: objective 0.000000e+00, 101 iterations, 0.00 seconds

    Nodes    |    Current Node    |     Objective Bounds      |     Work
 Expl Unexpl |  Obj  Depth IntInf | Incumbent    BestBd   Gap | It/Node Time

     0     0    0.00000    0   48          -    0.00000      -     -    0s
H    0     0                       5.4776634    0.00000   100%     -    0s
H    0     0                       4.4534931    0.00000   100%     -    0s
H    0     0                       4.2638616    0.00000   100%     -    0s
H    0     0                       4.2422716    0.00000   100%     -    0s
     0     0    0.00000    0   55    4.24227    0.00000   100%     -    0s
H    0     0                       4.2206815    0.00000   100%     -    0s
H    0     0                       4.1119216    0.00000   100%     -    0s
     0     0    0.00000    0   50    4.11192    0.00000   100%     -    0s
     0     0    0.00000    0   47    4.11192    0.00000   100%     -    0s
     0     0    0.00000    0   48    4.11192    0.00000   100%     -    0s
     0     2    0.13665    0   47    4.11192    0.13665  96.7%     -    0s
H  106   101                       4.0135558    0.13665  96.6%  14.6    0s
H  243   214                       3.9660533    0.13665  96.6%  15.2    0s
H  274   229                       3.9277931    0.13665  96.5%  14.2    0s
H  282   234                       3.7058144    0.13665  96.3%  14.7    0s
H  329   278                       3.6775064    0.13665  96.3%  14.5    0s
H  418   345                       3.6670737    0.13665  96.3%  13.0    0s
H  466   379                       3.6415457    0.13665  96.2%  13.2    0s
H  468   372                       3.5887484    0.13665  96.2%  13.3    0s
H  638   474                       3.5804931    1.58394  55.8%  19.0    0s
H 1261   726                       3.4774767    1.62646  53.2%  16.6    0s
H 1288   699                       3.4027858    1.62792  52.2%  16.5    1s
H 1944  1041                       3.3400540    1.81843  45.6%  15.0    1s
H 3927  2315                       3.3193664    1.96622  40.8%  14.5    1s
H 5504  3311                       3.2987377    2.06096  37.5%  14.3    2s
 10203  6127    3.27939   74  187    3.29874    2.17980  33.9%  14.0    5s
 14410  5886     cutoff   56         3.29874    3.10928  5.74%  14.7   10s
 22185  3644    3.29426   49   69    3.29874    3.20633  2.80%  14.7   15s

Cutting planes:
  Gomory: 4
  Cover: 1
  Implied bound: 207
  Projected implied bound: 8
  Clique: 3
  MIR: 40
  StrongCG: 2
  Flow cover: 88
  GUB cover: 3
  Relax-and-lift: 10

Explored 29346 nodes (402527 simplex iterations) in 18.12 seconds
Thread count was 1 (of 4 available processors)

Solution count 10: 3.29874 3.31937 3.34005 ... 3.67751

Optimal solution found (tolerance 1.00e-04)
Best objective 3.298737746194e+00, best bound 3.298422510857e+00, gap 0.0096%
